
;this file is automatically generated: Sat Sep 25 22:27:31 IST 2021

;declarations generated

(declare-fun Gender ( Int) Int)
(declare-fun oclExcludes ( Int Int) Bool)
(declare-fun type_81353f78_970b_45e2_8f62_c2db2339ef43_Department ( Int) Bool)
(declare-fun Cardinality ( Int) Int)
(declare-fun student_year ( Int) Int)
(declare-fun type_81353f78_970b_45e2_8f62_c2db2339ef43_Person ( Int) Bool)
(declare-fun type_81353f78_970b_45e2_8f62_c2db2339ef43_University ( Int) Bool)
(declare-fun oclSelect ( Int Bool) Int)
(declare-fun type_81353f78_970b_45e2_8f62_c2db2339ef43_Child ( Int) Bool)
(declare-fun module_year ( Int) Int)
(declare-fun ka739a754_907e_4e3d_8c99_ce7b1d3547f9 () Int)
(declare-fun container_ ( Int) Int)
(declare-fun type_81353f78_970b_45e2_8f62_c2db2339ef43_Module ( Int) Bool)
(declare-fun type_81353f78_970b_45e2_8f62_c2db2339ef43_Student ( Int) Bool)
(declare-fun oclIncludes ( Int Int) Bool)
(declare-fun obj_007a1495_38f7_4ea9_9784_dd830c4227b5 ( Int) Int)
(declare-fun k80961bb6_6857_45a0_be2a_aad0187ae302 () Int)
(declare-fun ObjAt ( Int Int) Int)
(declare-fun rel_7d69ada9_6188_4877_8c65_3e471e7bf6ce_choose ( Int Int) Bool)

;formula(s) generated
(assert (forall ((x Int)(y Int)) (=> (and ( rel_7d69ada9_6188_4877_8c65_3e471e7bf6ce_choose ( obj_007a1495_38f7_4ea9_9784_dd830c4227b5 x )   ( obj_007a1495_38f7_4ea9_9784_dd830c4227b5 y )  )  (and (and ( type_81353f78_970b_45e2_8f62_c2db2339ef43_Student x )  ( type_81353f78_970b_45e2_8f62_c2db2339ef43_Person x ) ) ( type_81353f78_970b_45e2_8f62_c2db2339ef43_Module y ) )) (or (or (or (= (* ( Cardinality ( container_ x )  )  0) (* ( Cardinality ( container_ y )  )  1)) (and (= (* ( Cardinality ( container_ y )  )  1) (* ( Cardinality ( container_ x )  )  k80961bb6_6857_45a0_be2a_aad0187ae302)) (>= k80961bb6_6857_45a0_be2a_aad0187ae302 0))) (= (* ( Cardinality ( container_ x )  )  0) (* ( Cardinality ( container_ y )  )  1))) (and (= (* ( Cardinality ( container_ y )  )  1) (* ( Cardinality ( container_ x )  )  ka739a754_907e_4e3d_8c99_ce7b1d3547f9)) (>= ka739a754_907e_4e3d_8c99_ce7b1d3547f9 0))))))
(assert (! (and (forall ((v Int)) (=> (and ( type_81353f78_970b_45e2_8f62_c2db2339ef43_Student v )  ( type_81353f78_970b_45e2_8f62_c2db2339ef43_Person v ) ) (>= ( student_year ( obj_007a1495_38f7_4ea9_9784_dd830c4227b5 v )  )  1))) (forall ((v Int)) (=> (and ( type_81353f78_970b_45e2_8f62_c2db2339ef43_Student v )  ( type_81353f78_970b_45e2_8f62_c2db2339ef43_Person v ) ) (<= ( student_year ( obj_007a1495_38f7_4ea9_9784_dd830c4227b5 v )  )  6)))):named l0))
(assert (! (and (exists ((s Int)) (and (and ( type_81353f78_970b_45e2_8f62_c2db2339ef43_Student s )  ( type_81353f78_970b_45e2_8f62_c2db2339ef43_Person s ) ) (= ( student_year ( obj_007a1495_38f7_4ea9_9784_dd830c4227b5 s )  )  6))) (exists ((s Int)) (and (and ( type_81353f78_970b_45e2_8f62_c2db2339ef43_Student s )  ( type_81353f78_970b_45e2_8f62_c2db2339ef43_Person s ) ) (< ( student_year ( obj_007a1495_38f7_4ea9_9784_dd830c4227b5 s )  )  6)))):named l1))
(assert (! (forall ((s1 Int)) (=> (and ( type_81353f78_970b_45e2_8f62_c2db2339ef43_Student s1 )  ( type_81353f78_970b_45e2_8f62_c2db2339ef43_Person s1 ) ) (forall ((m1 Int)) (=> (and ( type_81353f78_970b_45e2_8f62_c2db2339ef43_Module m1 )  ( rel_7d69ada9_6188_4877_8c65_3e471e7bf6ce_choose ( obj_007a1495_38f7_4ea9_9784_dd830c4227b5 s1 )   ( obj_007a1495_38f7_4ea9_9784_dd830c4227b5 m1 )  ) ) (= ( student_year ( obj_007a1495_38f7_4ea9_9784_dd830c4227b5 s1 )  )  ( module_year ( obj_007a1495_38f7_4ea9_9784_dd830c4227b5 m1 )  ) ))))):named l2))
(assert (! (and (forall ((v Int)) (=> ( type_81353f78_970b_45e2_8f62_c2db2339ef43_Module v )  (>= ( module_year ( obj_007a1495_38f7_4ea9_9784_dd830c4227b5 v )  )  1))) (forall ((v Int)) (=> ( type_81353f78_970b_45e2_8f62_c2db2339ef43_Module v )  (<= ( module_year ( obj_007a1495_38f7_4ea9_9784_dd830c4227b5 v )  )  5)))):named l3))
(assert (! (forall ((s Int)) (=> (and ( type_81353f78_970b_45e2_8f62_c2db2339ef43_Student s )  ( type_81353f78_970b_45e2_8f62_c2db2339ef43_Person s ) ) (exists ((v Int)) (and ( type_81353f78_970b_45e2_8f62_c2db2339ef43_Module v )  ( rel_7d69ada9_6188_4877_8c65_3e471e7bf6ce_choose ( obj_007a1495_38f7_4ea9_9784_dd830c4227b5 s )   ( obj_007a1495_38f7_4ea9_9784_dd830c4227b5 v )  ) )))):named l4))
(assert (! (exists ((o Int)) (and ( type_81353f78_970b_45e2_8f62_c2db2339ef43_Child ( obj_007a1495_38f7_4ea9_9784_dd830c4227b5 o )  )  ( type_81353f78_970b_45e2_8f62_c2db2339ef43_Person ( obj_007a1495_38f7_4ea9_9784_dd830c4227b5 o )  ) )):named c0))
(assert (! (exists ((o Int)) ( type_81353f78_970b_45e2_8f62_c2db2339ef43_Department ( obj_007a1495_38f7_4ea9_9784_dd830c4227b5 o )  ) ):named c1))
(assert (! (exists ((o Int)) ( type_81353f78_970b_45e2_8f62_c2db2339ef43_Module ( obj_007a1495_38f7_4ea9_9784_dd830c4227b5 o )  ) ):named c2))
(assert (! (exists ((o Int)) ( type_81353f78_970b_45e2_8f62_c2db2339ef43_Person ( obj_007a1495_38f7_4ea9_9784_dd830c4227b5 o )  ) ):named c3))
(assert (! (exists ((o Int)) (and ( type_81353f78_970b_45e2_8f62_c2db2339ef43_Student ( obj_007a1495_38f7_4ea9_9784_dd830c4227b5 o )  )  ( type_81353f78_970b_45e2_8f62_c2db2339ef43_Person ( obj_007a1495_38f7_4ea9_9784_dd830c4227b5 o )  ) )):named c4))
(assert (! (exists ((o Int)) ( type_81353f78_970b_45e2_8f62_c2db2339ef43_University ( obj_007a1495_38f7_4ea9_9784_dd830c4227b5 o )  ) ):named c5))

 ;end of formula 